(set-logic QF_LIA)
(set-info :ran/ran2.smt2)
(set-info :smt-lib-version 2.0)
(declare-fun x1 () Int)
(declare-fun x2 () Int)
(declare-fun x3 () Int)
(declare-fun x4 () Int)
(assert (<= (+ (* (- 7) x1) (* (- 4) x2) (* 0 x3) (* (- 10) x4) ) (- 31)))
(assert (<= (+ (* (- 7) x1) (* (- 4) x2) (* (- 10) x3) (* 9 x4) ) 36))
(assert (<= (+ (* (- 2) x1) (* (- 5) x2) (* 9 x3) (* (- 3) x4) ) 80))
(assert (<= (+ (* (- 10) x1) (* (- 9) x2) (* (- 1) x3) (* 4 x4) ) (- 5)))
(assert (<= (+ (* 7 x1) (* (- 2) x2) (* 7 x3) (* 10 x4) ) 84))
(assert (<= (+ (* 4 x1) (* (- 8) x2) (* (- 9) x3) (* (- 1) x4) ) (- 35)))
(assert (<= (+ (* (- 5) x1) (* 2 x2) (* 9 x3) (* 4 x4) ) (- 12)))
(assert (<= (+ (* (- 4) x1) (* 5 x2) (* 9 x3) (* (- 6) x4) ) (- 55)))
(assert (<= (+ (* 1 x1) (* 0 x2) (* 0 x3) (* 0 x4) ) 100))
(assert (<= (+ (* (- 1) x1) (* 0 x2) (* 0 x3) (* 0 x4) ) 100))
(assert (<= (+ (* 0 x1) (* 1 x2) (* 0 x3) (* 0 x4) ) 100))
(assert (<= (+ (* 0 x1) (* (- 1) x2) (* 0 x3) (* 0 x4) ) 100))
(assert (<= (+ (* 0 x1) (* 0 x2) (* 1 x3) (* 0 x4) ) 100))
(assert (<= (+ (* 0 x1) (* 0 x2) (* (- 1) x3) (* 0 x4) ) 100))
(assert (<= (+ (* 0 x1) (* 0 x2) (* 0 x3) (* 1 x4) ) 100))
(assert (<= (+ (* 0 x1) (* 0 x2) (* 0 x3) (* (- 1) x4) ) 100))
